p cnf 516 1300
e 1 2 3 4 5 6 7 8 9 10 11 12 13 14 15 16 17 18 19 20 21 22 23 24 25 26 27 28 29 30 31 32 33 34 35 36 37 38 39 40 41 42 43 44 45 46 47 48 49 50 51 52 53 54 55 56 57 58 59 60 61 62 63 64 65 66 67 68 69 70 71 72 73 74 75 76 77 78 79 80 81 82 83 84 85 86 87 88 89 90 91 92 93 94 95 96 97 98 99 100 101 102 103 104 105 106 107 108 109 110 111 112 113 114 115 116 117 118 119 120 121 122 123 124 125 126 0
a 127 128 129 130 0
e 131 132 133 134 135 136 137 138 139 140 141 142 143 144 145 146 147 148 149 150 151 152 153 154 155 156 157 158 159 160 161 162 163 164 165 166 167 168 169 170 171 172 173 174 175 176 177 178 179 180 181 182 183 184 185 186 187 188 189 190 191 192 193 194 195 196 197 198 199 200 201 202 203 204 205 206 207 208 209 210 211 212 213 214 215 216 217 218 219 220 221 222 223 224 225 226 227 228 229 230 231 232 233 234 235 236 237 238 239 240 241 242 243 244 245 246 247 248 249 250 251 252 253 254 255 256 257 258 259 260 261 262 263 264 265 266 267 268 269 270 271 272 273 274 275 276 277 278 279 280 281 282 283 284 285 286 287 288 289 290 291 292 293 294 295 296 297 298 299 300 301 302 303 304 305 306 0
a 307 308 309 310 0
e 311 312 313 314 315 316 317 318 319 320 321 322 323 324 325 326 327 328 329 330 331 332 333 334 335 336 337 338 339 340 341 342 343 344 345 346 347 348 349 350 351 352 353 354 355 356 357 358 359 360 361 362 363 364 365 366 367 368 369 370 371 372 373 374 375 376 377 378 379 380 381 382 383 384 385 386 387 388 389 390 391 392 393 394 395 396 397 398 399 400 401 402 403 404 405 406 407 408 409 410 411 412 413 414 415 416 417 418 419 420 421 422 423 424 425 426 427 428 429 430 431 432 433 434 435 436 437 438 439 440 441 442 443 444 445 446 447 448 449 450 451 452 453 454 455 456 457 458 459 460 461 462 463 464 465 466 467 468 469 470 471 472 473 474 475 476 477 478 479 480 481 482 483 484 485 486 487 488 489 490 491 492 493 494 495 496 497 498 499 500 501 502 503 504 505 506 507 508 509 510 511 512 513 514 515 516 0
-11 0
270 0
274 0
-205 0
362 0
-482 0
-391 0
-476 0
-14 0
272 0
-121 0
-53 0
-114 0
-113 0
-386 0
361 0
369 0
-115 0
-125 0
-2 0
-12 0
99 0
182 0
367 0
-123 0
-474 0
-9 0
-18 0
-27 0
277 0
-216 0
-395 0
-120 0
359 0
-3 0
-36 0
-86 0
96 0
486 0
-516 0
-7 0
-10 0
90 0
98 0
448 0
459 0
186 0
187 0
190 0
-214 0
-392 0
267 0
-22 0
-34 0
456 0
-295 0
-304 0
451 0
458 0
-302 0
-477 0
-388 0
-28 0
275 0
-390 0
-387 0
452 0
-206 0
-297 0
447 0
-20 0
-473 0
449 0
183 0
-298 0
-485 0
-56 0
271 0
-394 0
-119 0
-372 0
-23 0
-26 0
-32 0
-6 0
-13 0
-37 0
-62 0
89 0
-124 0
185 0
-479 0
-118 0
188 0
191 0
-396 0
1 0
-8 0
-17 0
97 0
368 0
-217 0
180 0
-122 0
-24 0
-389 0
-192 0
-59 0
91 0
455 0
-385 0
371 0
87 0
-305 0
-35 0
-15 0
88 0
268 0
-100 0
-5 0
-4 0
-21 0
93 0
453 0
181 0
-210 0
-33 0
-77 0
-80 0
-301 0
-117 0
-71 0
92 0
94 0
457 0
189 0
363 0
364 0
365 0
-212 0
-211 0
-296 0
-294 0
273 0
-300 0
-480 0
-475 0
179 0
-19 0
-83 0
184 0
370 0
450 0
360 0
-209 0
-208 0
-207 0
-30 0
-31 0
-68 0
-74 0
276 0
366 0
-481 0
95 0
-483 0
-478 0
-280 0
-25 0
-293 0
269 0
454 0
-215 0
-213 0
-299 0
-460 0
-29 0
-16 0
278 0
279 0
-484 0
-303 0
-116 0
-397 0
-65 0
-393 0
-126 38 0
-218 126 0
-306 218 0
-398 306 0
-52 144 0
-55 147 0
-58 150 0
-61 153 0
-64 156 0
-67 159 0
-70 162 0
-73 165 0
-76 168 0
-79 171 0
-82 174 0
-85 177 0
-144 232 0
-147 235 0
-150 238 0
-153 241 0
-156 244 0
-159 247 0
-162 250 0
-165 253 0
-168 256 0
-171 259 0
-174 262 0
-177 265 0
-232 324 0
-235 327 0
-238 330 0
-241 333 0
-244 336 0
-247 339 0
-250 342 0
-253 345 0
-256 348 0
-259 351 0
-262 354 0
-265 357 0
-324 412 0
-327 415 0
-330 418 0
-333 421 0
-336 424 0
-339 427 0
-342 430 0
-345 433 0
-348 436 0
-351 439 0
-354 442 0
-357 445 0
-145 233 0
-148 236 0
-151 239 0
-154 242 0
-157 245 0
-160 248 0
-163 251 0
-166 254 0
-169 257 0
-172 260 0
-175 263 0
-178 266 0
-233 325 0
-236 328 0
-239 331 0
-242 334 0
-245 337 0
-248 340 0
-251 343 0
-254 346 0
-257 349 0
-260 352 0
-263 355 0
-266 358 0
-325 413 0
-328 416 0
-331 419 0
-334 422 0
-337 425 0
-340 428 0
-343 431 0
-346 434 0
-349 437 0
-352 440 0
-355 443 0
-358 446 0
-144 -145 0
-147 -148 0
-150 -151 0
-153 -154 0
-156 -157 0
-159 -160 0
-162 -163 0
-165 -166 0
-168 -169 0
-171 -172 0
-174 -175 0
-177 -178 0
-232 -233 0
-235 -236 0
-238 -239 0
-241 -242 0
-244 -245 0
-247 -248 0
-250 -251 0
-253 -254 0
-256 -257 0
-259 -260 0
-262 -263 0
-265 -266 0
-324 -325 0
-327 -328 0
-330 -331 0
-333 -334 0
-336 -337 0
-339 -340 0
-342 -343 0
-345 -346 0
-348 -349 0
-351 -352 0
-354 -355 0
-357 -358 0
-412 -413 0
-415 -416 0
-418 -419 0
-421 -422 0
-424 -425 0
-427 -428 0
-430 -431 0
-433 -434 0
-436 -437 0
-439 -440 0
-442 -443 0
-445 -446 0
-51 52 0
51 -52 0
-54 55 0
54 -55 0
-57 58 0
57 -58 0
-60 61 0
60 -61 0
-63 64 0
63 -64 0
-66 67 0
66 -67 0
-69 70 0
69 -70 0
-72 73 0
72 -73 0
-75 76 0
75 -76 0
-78 79 0
78 -79 0
-81 82 0
81 -82 0
-84 85 0
84 -85 0
-143 144 145 0
143 -144 0
143 -145 0
-146 147 148 0
146 -147 0
146 -148 0
-149 150 151 0
149 -150 0
149 -151 0
-152 153 154 0
152 -153 0
152 -154 0
-155 156 157 0
155 -156 0
155 -157 0
-158 159 160 0
158 -159 0
158 -160 0
-161 162 163 0
161 -162 0
161 -163 0
-164 165 166 0
164 -165 0
164 -166 0
-167 168 169 0
167 -168 0
167 -169 0
-170 171 172 0
170 -171 0
170 -172 0
-173 174 175 0
173 -174 0
173 -175 0
-176 177 178 0
176 -177 0
176 -178 0
-231 232 233 0
231 -232 0
231 -233 0
-234 235 236 0
234 -235 0
234 -236 0
-237 238 239 0
237 -238 0
237 -239 0
-240 241 242 0
240 -241 0
240 -242 0
-243 244 245 0
243 -244 0
243 -245 0
-246 247 248 0
246 -247 0
246 -248 0
-249 250 251 0
249 -250 0
249 -251 0
-252 253 254 0
252 -253 0
252 -254 0
-255 256 257 0
255 -256 0
255 -257 0
-258 259 260 0
258 -259 0
258 -260 0
-261 262 263 0
261 -262 0
261 -263 0
-264 265 266 0
264 -265 0
264 -266 0
-323 324 325 0
323 -324 0
323 -325 0
-326 327 328 0
326 -327 0
326 -328 0
-329 330 331 0
329 -330 0
329 -331 0
-332 333 334 0
332 -333 0
332 -334 0
-335 336 337 0
335 -336 0
335 -337 0
-338 339 340 0
338 -339 0
338 -340 0
-341 342 343 0
341 -342 0
341 -343 0
-344 345 346 0
344 -345 0
344 -346 0
-347 348 349 0
347 -348 0
347 -349 0
-350 351 352 0
350 -351 0
350 -352 0
-353 354 355 0
353 -354 0
353 -355 0
-356 357 358 0
356 -357 0
356 -358 0
-411 412 413 0
411 -412 0
411 -413 0
-414 415 416 0
414 -415 0
414 -416 0
-417 418 419 0
417 -418 0
417 -419 0
-420 421 422 0
420 -421 0
420 -422 0
-423 424 425 0
423 -424 0
423 -425 0
-426 427 428 0
426 -427 0
426 -428 0
-429 430 431 0
429 -430 0
429 -431 0
-432 433 434 0
432 -433 0
432 -434 0
-435 436 437 0
435 -436 0
435 -437 0
-438 439 440 0
438 -439 0
438 -440 0
-441 442 443 0
441 -442 0
441 -443 0
-444 445 446 0
444 -445 0
444 -446 0
38 -52 0
38 -55 0
38 -58 0
38 -61 0
38 -64 0
38 -67 0
38 -70 0
38 -73 0
38 -76 0
38 -79 0
38 -82 0
38 -85 0
126 52 -144 0
126 55 -147 0
126 58 -150 0
126 61 -153 0
126 64 -156 0
126 67 -159 0
126 70 -162 0
126 73 -165 0
126 76 -168 0
126 79 -171 0
126 82 -174 0
126 85 -177 0
218 144 -232 0
218 147 -235 0
218 150 -238 0
218 153 -241 0
218 156 -244 0
218 159 -247 0
218 162 -250 0
218 165 -253 0
218 168 -256 0
218 171 -259 0
218 174 -262 0
218 177 -265 0
306 232 -324 0
306 235 -327 0
306 238 -330 0
306 241 -333 0
306 244 -336 0
306 247 -339 0
306 250 -342 0
306 253 -345 0
306 256 -348 0
306 259 -351 0
306 262 -354 0
306 265 -357 0
398 324 -412 0
398 327 -415 0
398 330 -418 0
398 333 -421 0
398 336 -424 0
398 339 -427 0
398 342 -430 0
398 345 -433 0
398 348 -436 0
398 351 -439 0
398 354 -442 0
398 357 -445 0
126 -145 0
126 -148 0
126 -151 0
126 -154 0
126 -157 0
126 -160 0
126 -163 0
126 -166 0
126 -169 0
126 -172 0
126 -175 0
126 -178 0
218 145 -233 0
218 148 -236 0
218 151 -239 0
218 154 -242 0
218 157 -245 0
218 160 -248 0
218 163 -251 0
218 166 -254 0
218 169 -257 0
218 172 -260 0
218 175 -263 0
218 178 -266 0
306 233 -325 0
306 236 -328 0
306 239 -331 0
306 242 -334 0
306 245 -337 0
306 248 -340 0
306 251 -343 0
306 254 -346 0
306 257 -349 0
306 260 -352 0
306 263 -355 0
306 266 -358 0
398 325 -413 0
398 328 -416 0
398 331 -419 0
398 334 -422 0
398 337 -425 0
398 340 -428 0
398 343 -431 0
398 346 -434 0
398 349 -437 0
398 352 -440 0
398 355 -443 0
398 358 -446 0
39 -52 0
40 -55 0
41 -58 0
42 -61 0
43 -64 0
44 -67 0
45 -70 0
46 -73 0
47 -76 0
48 -79 0
49 -82 0
50 -85 0
219 144 -232 0
145 -233 0
220 147 -235 0
148 -236 0
221 150 -238 0
151 -239 0
222 153 -241 0
154 -242 0
223 156 -244 0
157 -245 0
224 159 -247 0
160 -248 0
225 162 -250 0
163 -251 0
226 165 -253 0
166 -254 0
227 168 -256 0
169 -257 0
228 171 -259 0
172 -260 0
229 174 -262 0
175 -263 0
230 177 -265 0
178 -266 0
399 324 -412 0
325 -413 0
400 327 -415 0
328 -416 0
401 330 -418 0
331 -419 0
402 333 -421 0
334 -422 0
403 336 -424 0
337 -425 0
404 339 -427 0
340 -428 0
405 342 -430 0
343 -431 0
406 345 -433 0
346 -434 0
407 348 -436 0
349 -437 0
408 351 -439 0
352 -440 0
409 354 -442 0
355 -443 0
410 357 -445 0
358 -446 0
131 -145 0
52 -144 0
132 -148 0
55 -147 0
133 -151 0
58 -150 0
134 -154 0
61 -153 0
135 -157 0
64 -156 0
136 -160 0
67 -159 0
137 -163 0
70 -162 0
138 -166 0
73 -165 0
139 -169 0
76 -168 0
140 -172 0
79 -171 0
141 -175 0
82 -174 0
142 -178 0
85 -177 0
311 233 -325 0
232 -324 0
312 236 -328 0
235 -327 0
313 239 -331 0
238 -330 0
314 242 -334 0
241 -333 0
315 245 -337 0
244 -336 0
316 248 -340 0
247 -339 0
317 251 -343 0
250 -342 0
318 254 -346 0
253 -345 0
319 257 -349 0
256 -348 0
320 260 -352 0
259 -351 0
321 263 -355 0
262 -354 0
322 266 -358 0
265 -357 0
487 -412 -415 -418 -427 -430 0
-487 412 0
-487 415 0
-487 418 0
-487 427 0
-487 430 0
488 -412 -415 -418 -427 -436 -439 0
-488 412 0
-488 415 0
-488 418 0
-488 427 0
-488 436 0
-488 439 0
489 -412 -415 -418 -427 -436 -445 0
-489 412 0
-489 415 0
-489 418 0
-489 427 0
-489 436 0
-489 445 0
490 -412 -415 -424 -427 -430 0
-490 412 0
-490 415 0
-490 424 0
-490 427 0
-490 430 0
491 -412 -415 -424 -427 -436 -439 0
-491 412 0
-491 415 0
-491 424 0
-491 427 0
-491 436 0
-491 439 0
492 -412 -415 -424 -427 -436 -445 0
-492 412 0
-492 415 0
-492 424 0
-492 427 0
-492 436 0
-492 445 0
493 -412 -415 -424 -433 -436 -430 0
-493 412 0
-493 415 0
-493 424 0
-493 433 0
-493 436 0
-493 430 0
494 -412 -415 -424 -433 -436 -439 0
-494 412 0
-494 415 0
-494 424 0
-494 433 0
-494 436 0
-494 439 0
495 -412 -415 -424 -433 -436 -445 0
-495 412 0
-495 415 0
-495 424 0
-495 433 0
-495 436 0
-495 445 0
496 -421 -415 -418 -427 -430 0
-496 421 0
-496 415 0
-496 418 0
-496 427 0
-496 430 0
497 -421 -415 -418 -427 -436 -439 0
-497 421 0
-497 415 0
-497 418 0
-497 427 0
-497 436 0
-497 439 0
498 -421 -415 -418 -427 -436 -445 0
-498 421 0
-498 415 0
-498 418 0
-498 427 0
-498 436 0
-498 445 0
499 -421 -424 -427 -430 0
-499 421 0
-499 424 0
-499 427 0
-499 430 0
500 -421 -424 -427 -436 -439 0
-500 421 0
-500 424 0
-500 427 0
-500 436 0
-500 439 0
501 -421 -424 -427 -436 -445 0
-501 421 0
-501 424 0
-501 427 0
-501 436 0
-501 445 0
502 -421 -424 -433 -436 -430 0
-502 421 0
-502 424 0
-502 433 0
-502 436 0
-502 430 0
503 -421 -424 -433 -436 -439 0
-503 421 0
-503 424 0
-503 433 0
-503 436 0
-503 439 0
504 -421 -424 -433 -436 -445 0
-504 421 0
-504 424 0
-504 433 0
-504 436 0
-504 445 0
505 -424 -427 -430 0
-505 424 0
-505 427 0
-505 430 0
506 -424 -427 -436 -439 0
-506 424 0
-506 427 0
-506 436 0
-506 439 0
507 -424 -427 -436 -445 0
-507 424 0
-507 427 0
-507 436 0
-507 445 0
508 -433 -427 -430 0
-508 433 0
-508 427 0
-508 430 0
509 -433 -436 -430 0
-509 433 0
-509 436 0
-509 430 0
510 -433 -436 -439 0
-510 433 0
-510 436 0
-510 439 0
511 -433 -436 -445 0
-511 433 0
-511 436 0
-511 445 0
512 -442 -433 -427 -430 0
-512 442 0
-512 433 0
-512 427 0
-512 430 0
513 -442 -433 -436 -430 0
-513 442 0
-513 433 0
-513 436 0
-513 430 0
514 -442 -433 -436 -439 0
-514 442 0
-514 433 0
-514 436 0
-514 439 0
515 -442 -433 -436 -445 0
-515 442 0
-515 433 0
-515 436 0
-515 445 0
487 488 489 490 491 492 493 494 495 496 497 498 499 500 501 502 503 504 505 506 507 508 509 510 511 512 513 514 515 0
-39 101 0
39 -101 0
-40 102 0
-101 102 0
40 -102 101 0
-40 -101 0
-41 103 0
-102 103 0
41 -103 102 0
-41 -102 0
-42 104 0
-103 104 0
42 -104 103 0
-42 -103 0
-43 105 0
-104 105 0
43 -105 104 0
-43 -104 0
-44 106 0
-105 106 0
44 -106 105 0
-44 -105 0
-45 107 0
-106 107 0
45 -107 106 0
-45 -106 0
-46 108 0
-107 108 0
46 -108 107 0
-46 -107 0
-47 109 0
-108 109 0
47 -109 108 0
-47 -108 0
-48 110 0
-109 110 0
48 -110 109 0
-48 -109 0
-49 111 0
-110 111 0
49 -111 110 0
-49 -110 0
-50 112 0
-111 112 0
50 -112 111 0
-50 -111 0
-219 281 0
219 -281 0
-220 282 0
-281 282 0
220 -282 281 0
-220 -281 0
-221 283 0
-282 283 0
221 -283 282 0
-221 -282 0
-222 284 0
-283 284 0
222 -284 283 0
-222 -283 0
-223 285 0
-284 285 0
223 -285 284 0
-223 -284 0
-224 286 0
-285 286 0
224 -286 285 0
-224 -285 0
-225 287 0
-286 287 0
225 -287 286 0
-225 -286 0
-226 288 0
-287 288 0
226 -288 287 0
-226 -287 0
-227 289 0
-288 289 0
227 -289 288 0
-227 -288 0
-228 290 0
-289 290 0
228 -290 289 0
-228 -289 0
-229 291 0
-290 291 0
229 -291 290 0
-229 -290 0
-230 292 0
-291 292 0
230 -292 291 0
-230 -291 0
-399 461 0
399 -461 0
-400 462 0
-461 462 0
400 -462 461 0
-400 -461 0
-401 463 0
-462 463 0
401 -463 462 0
-401 -462 0
-402 464 0
-463 464 0
402 -464 463 0
-402 -463 0
-403 465 0
-464 465 0
403 -465 464 0
-403 -464 0
-404 466 0
-465 466 0
404 -466 465 0
-404 -465 0
-405 467 0
-466 467 0
405 -467 466 0
-405 -466 0
-406 468 0
-467 468 0
406 -468 467 0
-406 -467 0
-407 469 0
-468 469 0
407 -469 468 0
-407 -468 0
-408 470 0
-469 470 0
408 -470 469 0
-408 -469 0
-409 471 0
-470 471 0
409 -471 470 0
-409 -470 0
-410 472 0
-471 472 0
410 -472 471 0
-410 -471 0
-131 193 0
131 -193 0
-132 194 0
-193 194 0
132 -194 193 0
-132 -193 0
-133 195 0
-194 195 0
133 -195 194 0
-133 -194 0
-134 196 0
-195 196 0
134 -196 195 0
-134 -195 0
-135 197 0
-196 197 0
135 -197 196 0
-135 -196 0
-136 198 0
-197 198 0
136 -198 197 0
-136 -197 0
-137 199 0
-198 199 0
137 -199 198 0
-137 -198 0
-138 200 0
-199 200 0
138 -200 199 0
-138 -199 0
-139 201 0
-200 201 0
139 -201 200 0
-139 -200 0
-140 202 0
-201 202 0
140 -202 201 0
-140 -201 0
-141 203 0
-202 203 0
141 -203 202 0
-141 -202 0
-142 204 0
-203 204 0
142 -204 203 0
-142 -203 0
-311 373 0
311 -373 0
-312 374 0
-373 374 0
312 -374 373 0
-312 -373 0
-313 375 0
-374 375 0
313 -375 374 0
-313 -374 0
-314 376 0
-375 376 0
314 -376 375 0
-314 -375 0
-315 377 0
-376 377 0
315 -377 376 0
-315 -376 0
-316 378 0
-377 378 0
316 -378 377 0
-316 -377 0
-317 379 0
-378 379 0
317 -379 378 0
-317 -378 0
-318 380 0
-379 380 0
318 -380 379 0
-318 -379 0
-319 381 0
-380 381 0
319 -381 380 0
-319 -380 0
-320 382 0
-381 382 0
320 -382 381 0
-320 -381 0
-321 383 0
-382 383 0
321 -383 382 0
-321 -382 0
-322 384 0
-383 384 0
322 -384 383 0
-322 -383 0
-38 112 0
-218 292 0
-398 472 0
-126 204 0
-306 384 0
-39 52 0
-39 38 0
-40 55 0
-40 38 0
-41 58 0
-41 38 0
-42 61 0
-42 38 0
-43 64 0
-43 38 0
-44 67 0
-44 38 0
-45 70 0
-45 38 0
-46 73 0
-46 38 0
-47 76 0
-47 38 0
-48 79 0
-48 38 0
-49 82 0
-49 38 0
-50 85 0
-50 38 0
-219 232 0
-219 -143 0
-219 218 0
-220 235 0
-220 -146 0
-220 218 0
-221 238 0
-221 -149 0
-221 218 0
-222 241 0
-222 -152 0
-222 218 0
-223 244 0
-223 -155 0
-223 218 0
-224 247 0
-224 -158 0
-224 218 0
-225 250 0
-225 -161 0
-225 218 0
-226 253 0
-226 -164 0
-226 218 0
-227 256 0
-227 -167 0
-227 218 0
-228 259 0
-228 -170 0
-228 218 0
-229 262 0
-229 -173 0
-229 218 0
-230 265 0
-230 -176 0
-230 218 0
-399 412 0
-399 -323 0
-399 398 0
-400 415 0
-400 -326 0
-400 398 0
-401 418 0
-401 -329 0
-401 398 0
-402 421 0
-402 -332 0
-402 398 0
-403 424 0
-403 -335 0
-403 398 0
-404 427 0
-404 -338 0
-404 398 0
-405 430 0
-405 -341 0
-405 398 0
-406 433 0
-406 -344 0
-406 398 0
-407 436 0
-407 -347 0
-407 398 0
-408 439 0
-408 -350 0
-408 398 0
-409 442 0
-409 -353 0
-409 398 0
-410 445 0
-410 -356 0
-410 398 0
-131 145 0
-131 -51 0
-131 126 0
-132 148 0
-132 -54 0
-132 126 0
-133 151 0
-133 -57 0
-133 126 0
-134 154 0
-134 -60 0
-134 126 0
-135 157 0
-135 -63 0
-135 126 0
-136 160 0
-136 -66 0
-136 126 0
-137 163 0
-137 -69 0
-137 126 0
-138 166 0
-138 -72 0
-138 126 0
-139 169 0
-139 -75 0
-139 126 0
-140 172 0
-140 -78 0
-140 126 0
-141 175 0
-141 -81 0
-141 126 0
-142 178 0
-142 -84 0
-142 126 0
-311 325 0
-311 -231 0
-311 306 0
-312 328 0
-312 -234 0
-312 306 0
-313 331 0
-313 -237 0
-313 306 0
-314 334 0
-314 -240 0
-314 306 0
-315 337 0
-315 -243 0
-315 306 0
-316 340 0
-316 -246 0
-316 306 0
-317 343 0
-317 -249 0
-317 306 0
-318 346 0
-318 -252 0
-318 306 0
-319 349 0
-319 -255 0
-319 306 0
-320 352 0
-320 -258 0
-320 306 0
-321 355 0
-321 -261 0
-321 306 0
-322 358 0
-322 -264 0
-322 306 0
-126 51 -127 -128 -129 -130 131 0
-126 54 127 -128 -129 -130 132 0
-126 57 -127 128 -129 -130 133 0
-126 60 127 128 -129 -130 134 0
-126 63 -127 -128 129 -130 135 0
-126 66 127 -128 129 -130 136 0
-126 69 -127 128 129 -130 137 0
-126 72 127 128 129 -130 138 0
-126 75 -127 -128 -129 130 139 0
-126 78 127 -128 -129 130 140 0
-126 81 -127 128 -129 130 141 0
-126 84 127 128 -129 130 142 0
-306 231 -307 -308 -309 -310 311 0
-306 234 307 -308 -309 -310 312 0
-306 237 -307 308 -309 -310 313 0
-306 240 307 308 -309 -310 314 0
-306 243 -307 -308 309 -310 315 0
-306 246 307 -308 309 -310 316 0
-306 249 -307 308 309 -310 317 0
-306 252 307 308 309 -310 318 0
-306 255 -307 -308 -309 310 319 0
-306 258 307 -308 -309 310 320 0
-306 261 -307 308 -309 310 321 0
-306 264 307 308 -309 310 322 0
